# 69472
param n := 25;
param s := 1;
set E :=  (0,5) (0,21) (1,10) (1,20) (2,15) (3,5) (3,23) (4,6) (4,9) (4,14) (4,19) (4,21) (5,22) (5,24) (6,7) (6,17) (7,10) (7,21) (8,9) (8,12) (8,21) (9,19) (11,15) (11,22) (12,20) (13,24) (14,17) (15,18) (16,21) (20,21);
